c generated by sgen
p cnf 41 92
-2 -3 -4 0
-1 -3 -4 0
-1 -2 -4 0
-1 -2 -3 0
-6 -7 -8 0
-5 -7 -8 0
-5 -6 -8 0
-5 -6 -7 0
-10 -11 -12 0
-9 -11 -12 0
-9 -10 -12 0
-9 -10 -11 0
-14 -15 -16 0
-13 -15 -16 0
-13 -14 -16 0
-13 -14 -15 0
-18 -19 -20 0
-17 -19 -20 0
-17 -18 -20 0
-17 -18 -19 0
-22 -23 -24 0
-21 -23 -24 0
-21 -22 -24 0
-21 -22 -23 0
-26 -27 -28 0
-25 -27 -28 0
-25 -26 -28 0
-25 -26 -27 0
-30 -31 -32 0
-29 -31 -32 0
-29 -30 -32 0
-29 -30 -31 0
-34 -35 -36 0
-33 -35 -36 0
-33 -34 -36 0
-33 -34 -35 0
-37 -38 -39 0
-37 -38 -40 0
-37 -38 -41 0
-37 -39 -40 0
-37 -39 -41 0
-37 -40 -41 0
-38 -39 -40 0
-38 -39 -41 0
-38 -40 -41 0
-39 -40 -41 0
29 15 41 0
8 15 41 0
8 29 41 0
8 29 15 0
9 31 26 0
18 31 26 0
18 9 26 0
18 9 31 0
14 1 22 0
27 1 22 0
27 14 22 0
27 14 1 0
5 39 10 0
3 39 10 0
3 5 10 0
3 5 39 0
24 33 28 0
6 33 28 0
6 24 28 0
6 24 33 0
36 25 40 0
4 25 40 0
4 36 40 0
4 36 25 0
16 30 38 0
21 30 38 0
21 16 38 0
21 16 30 0
34 2 32 0
17 2 32 0
17 34 32 0
17 34 2 0
11 23 20 0
37 23 20 0
37 11 20 0
37 11 23 0
13 19 7 0
13 19 35 0
13 19 12 0
13 7 35 0
13 7 12 0
13 35 12 0
19 7 35 0
19 7 12 0
19 35 12 0
7 35 12 0
